TCS_Benchmarks/redos_fix/corpus2_output_distinct_2270_2269_28_0.txt
([^\]]*)(\d+)
([^\]]*)( +(\S+) +(left|right|center) +)(\d+)